$ -------------------------------------------------------------------- $
$ WAVEWATCH III shell input file                                       $
$ -------------------------------------------------------------------- $
$ Define input to be used with flag for use and flag for definition
$ as a homogeneous field (first three only); eight input lines.
$
   F F     Ice parameter 1
   F F     Ice parameter 2
   F F     Ice parameter 3
   F F     Ice parameter 4
   F F     Ice parameter 5
   F F     Mud parameter 1
   F F     Mud parameter 2
   F F     Mud parameter 3
   F F     Water levels
   F F     Currents
{% if candidate.wind_forcing_enable %}   T F     Winds {% else %}   F F     Winds {% endif %}
   F       Ice concentrations
   F       Assimilation data : Mean parameters
   F       Assimilation data : 1-D spectra
   F       Assimilation data : 2-D spectra
$
$ Time frame of calculations ----------------------------------------- $
$ - Starting time in yyyymmdd hhmmss format.
$ - Ending time in yyyymmdd hhmmss format.
$
{{ candidate.start_time.strftime('%Y%m%d %H%M%S') }}
{{ candidate.end_time.strftime('%Y%m%d %H%M%S') }}
$
$ Define output data ------------------------------------------------- $
$
$ Define output server mode. This is used only in the parallel version
$ of the model. To keep the input file consistent, it is always needed.
$ IOSTYP = 1 is generally recommended. IOSTYP > 2 may be more efficient
$ for massively parallel computations. Only IOSTYP = 0 requires a true
$ parallel file system like GPFS.
$
$    IOSTYP = 0 : No data server processes, direct access output from
$                 each process (requirese true parallel file system).
$             1 : No data server process. All output for each type 
$                 performed by process that performes computations too.
$             2 : Last process is reserved for all output, and does no
$                 computing.
$             3 : Multiple dedicated output processes.
$
   0
$
$ Five output types are available (see below). All output types share
$ a similar format for the first input line:
$ - first time in yyyymmdd hhmmss format, output interval (s), and 
$   last time in yyyymmdd hhmmss format (all integers).
$ Output is disabled by setting the output interval to 0.
$
$ ------------------------------------------------------------------- $
$
$ Type 1 : Fields of mean wave parameters
$          Standard line and line with logical flags to activate output
$          fields as defined in section 2.4 of the manual. The logical
$          flags are not supplied if no output is requested. The logical
$          flags can be placed on multiple consecutive lines. However,
$          the total number and order of the logical flags is fixed.
$                               The raw data file is out_grd.ww3, 
$                               see w3iogo.ftn for additional doc.
$
{{candidate.start_time.strftime('%Y%m%d %H%M%S')}} 1800 {{candidate.end_time.strftime('%Y%m%d %H%M%S')}}
$
N
WND CUR WLV HS LM T01 HIG DIR FP UST CHA TAW SXY TWO BHD FOC WCH USS P2S DPT TBB FBB UBR TUS
$
$----------------------------------------------------------------
$
$ Type 2 : Point output
$          Standard line and a number of lines identifying the 
$          longitude, latitude and name (C*10) of output points.
$          The list is closed by defining a point with the name
$          'STOPSTRING'. No point info read if no point output is
$          requested (i.e., no 'STOPSTRING' needed).
$          Example for spherical grid.
$                               The raw data file is out_pnt.ww3, 
$                               see w3iogo.ftn for additional doc.
$
$   NOTE : Spaces may be included in the name, but this is not
$          advised, because it will break the GrADS utility to 
$          plots spectra and source terms, and will make it more
$          diffucult to use point names in data files.
$
{{candidate.start_time.strftime('%Y%m%d %H%M%S')}} 1800 {{candidate.end_time.strftime('%Y%m%d %H%M%S')}}
$
{% for key, value in candidate.output_points.items() %}   {{ value[0] }} {{ value[1] }} '{{ key }}'
{% endfor %}{% if candidate.exported_nested_boundaries|length > 0 %}{% for key, value in candidate.exported_nested_boundaries.items() %}   {{ value[0] }} {{ value[1] }} '{{ key }}'
{% endfor %} {% endif %}   0.0   0.0  'STOPSTRING'
$
$ Type 3 : Output along  track.
$          Flag for formatted input file.
$                         The data files are track_i.ww3 and
$                         track_o.ww3, see w3iotr.ftn for ad. doc.
$
   19680606 000000   1800  19680606 013000
     T
$
$ Type 4 : Restart files (no additional data required).
$                               The data file is restartN.ww3, see
$                               w3iors.ftn for additional doc.
$
{{candidate.start_time.strftime('%Y%m%d %H%M%S')}} 84600 {{candidate.end_time.strftime('%Y%m%d %H%M%S')}}
$
$ Type 5 : Boundary data (no additional data required).
$                               The data file is nestN.ww3, see
$                               w3iobcmd.ftn for additional doc.
$
{{candidate.start_time.strftime('%Y%m%d %H%M%S')}} 1800 {{candidate.end_time.strftime('%Y%m%d %H%M%S')}}
$
$ Type 6 : Separated wave field data (dummy for now).
$          First, last step IX and IY, flag for formatted file
$
   19680606 000000   3600  20010102 000000
      0 999 1 0 999 1 T
$
$ Type 7 : Coupling (must be fully commented if not used)
$          Diagnostic fields to exchange (same format as output fields)
$
{{ candidate.start_time.strftime('%Y%m%d %H%M%S') }} 600 {{candidate.end_time.strftime('%Y%m%d %H%M%S')}}
N
$
$   - Sent fields by ww3:
$       - Ocean model : T0M1 OHS DIR BHD TWO UBR FOC TAW TUS USS LM DRY
$       - Atmospheric model : CUR CHA HS FP
$
T0M1 OHS DIR TWO FOC TAW USS WCH DRY
$ T0M1 OHS DIR TWO FOC TAW USS WCH
$
$   - Received fields by ww3:
$       - Ocean model : SSH CUR DRY
$       - Atmospheric model : WND
$
$ SSH 
$SSH CUR
$toto
$SSH
$
$ Homogeneous field data --------------------------------------------- $
$ Homogeneous fields can be defined by a list of lines containing an ID
$ string 'LEV' 'CUR' 'WND', date and time information (yyyymmdd
$ hhmmss), value (S.I. units), direction (current and wind, oceanogr.
$ convention degrees)) and air-sea temparature difference (degrees C).
$ 'STP' is mandatory stop string.
$ Also defined here are the speed with which the grid is moved
$ continuously, ID string 'MOV', parameters as for 'CUR'.
$
$  'LEV' 19680606 010000    1.00
$  'CUR' 19680606 073125    2.0    25.
$  'WND' 20130201 000000   20.    145.    2.0
$   'WND' 20160201 000000   20.    145.    2.0
$  'MOV' 19680606 013000    4.0    25.
$  'STP'
$
$ -------------------------------------------------------------------- $
$ End of input file                                                    $
$ -------------------------------------------------------------------- $
